Minimize
  - 65 y_0 - 85 y_1 - 84 y_2 - 71 y_3 - 83 y_4 - 59 y_5 - 43 y_6 - 122 y_8
   - 99 y_9 - 23 y_10 - 42 y_11 - 17 y_12 - 58 y_13 - 100 y_14 - 32 y_15
   - 69 y_16 - 55 y_17 - 29 y_18 - 93 y_19 - 95 y_20 - 45 y_21 - 48 y_22
   - 47 y_23 - 91 y_24 - 43 y_25 - 69 y_26 - 71 y_27 - 98 y_28 - 67 y_29
   - 76 y_30 - 85 y_31 - 115 y_32 - 24 y_33 - 103 y_34 - 96 y_35 - 41 y_36
   - 76 y_37 - 103 y_38 - 73 y_39 - 92 y_40 - 47 y_41 - 57 y_42 - 83 y_43
   - 109 y_44 - 99 y_45 - 77 y_46 - 76 y_47 - 110 y_48 - 77 y_49
   + 3522 Constant
Subject To
 c_0: y_1 = 1
 c_1_0: y_0 + y_3 + y_5 + y_13 + y_17 + y_39 + y_43 + y_49 >= 1
 c_1_1: y_1 + y_2 + y_3 + y_14 + y_19 + y_27 + y_31 + y_35 + y_38 + y_40
   + y_43 + y_45 + y_47 + y_49 >= 1
 c_1_2: y_1 + y_2 + y_3 + y_9 + y_31 + y_35 + y_40 + y_43 + y_45 + y_49
   >= 1
 c_1_3: y_0 + y_1 + y_2 + y_3 + y_31 + y_42 + y_43 + y_49 >= 1
 c_1_4: y_4 + y_24 + y_37 + y_46 >= 1
 c_1_5: y_0 + y_5 + y_11 + y_13 + y_17 + y_22 + y_25 + y_39 >= 1
 c_1_6: y_6 + y_23 + y_41 >= 1
 c_1_7: y_7 + y_12 >= 1
 c_1_8: y_8 + y_32 + y_44 >= 1
 c_1_9: y_2 + y_9 + y_35 + y_43 + y_44 + y_48 >= 1
 c_1_10: y_10 + y_12 + y_15 + y_18 + y_36 >= 1
 c_1_11: y_5 + y_11 + y_13 + y_15 + y_17 + y_22 + y_25 + y_33 >= 1
 c_1_12: y_7 + y_10 + y_12 + y_15 + y_18 + y_33 >= 1
 c_1_13: y_0 + y_5 + y_11 + y_13 + y_17 + y_22 + y_25 + y_39 >= 1
 c_1_14: y_1 + y_14 + y_19 + y_31 + y_38 + y_40 + y_45 >= 1
 c_1_15: y_10 + y_11 + y_12 + y_15 + y_18 + y_22 + y_25 + y_33 >= 1
 c_1_16: y_16 + y_26 + y_27 + y_42 + y_47 >= 1
 c_1_17: y_0 + y_5 + y_11 + y_13 + y_17 + y_22 + y_25 + y_39 >= 1
 c_1_18: y_10 + y_12 + y_15 + y_18 + y_21 + y_36 >= 1
 c_1_19: y_1 + y_14 + y_19 + y_31 + y_38 + y_40 + y_45 + y_47 >= 1
 c_1_20: y_20 + y_28 + y_30 >= 1
 c_1_21: y_18 + y_21 + y_36 + y_42 >= 1
 c_1_22: y_5 + y_11 + y_13 + y_15 + y_17 + y_22 + y_23 + y_25 >= 1
 c_1_23: y_6 + y_22 + y_23 + y_41 >= 1
 c_1_24: y_4 + y_24 + y_37 + y_46 >= 1
 c_1_25: y_5 + y_11 + y_13 + y_15 + y_17 + y_22 + y_25 + y_36 + y_42 >= 1
 c_1_26: y_16 + y_26 + y_27 + y_42 + y_47 >= 1
 c_1_27: y_1 + y_16 + y_26 + y_27 + y_31 + y_42 + y_47 >= 1
 c_1_28: y_20 + y_28 + y_34 >= 1
 c_1_29: y_29 + y_30 + y_46 >= 1
 c_1_30: y_20 + y_29 + y_30 + y_39 >= 1
 c_1_31: y_1 + y_2 + y_3 + y_14 + y_19 + y_27 + y_31 + y_38 + y_40 + y_43
   + y_45 + y_47 >= 1
 c_1_32: y_8 + y_32 >= 1
 c_1_33: y_11 + y_12 + y_15 + y_33 >= 1
 c_1_34: y_28 + y_34 >= 1
 c_1_35: y_1 + y_2 + y_9 + y_35 + y_38 + y_40 + y_43 + y_45 + y_48 + y_49
   >= 1
 c_1_36: y_10 + y_18 + y_21 + y_25 + y_36 + y_42 >= 1
 c_1_37: y_4 + y_24 + y_37 + y_46 >= 1
 c_1_38: y_1 + y_14 + y_19 + y_31 + y_35 + y_38 + y_40 + y_45 >= 1
 c_1_39: y_0 + y_5 + y_13 + y_17 + y_30 + y_39 >= 1
 c_1_40: y_1 + y_2 + y_14 + y_19 + y_31 + y_35 + y_38 + y_40 + y_43 + y_45
   + y_49 >= 1
 c_1_41: y_6 + y_23 + y_41 >= 1
 c_1_42: y_3 + y_16 + y_21 + y_25 + y_26 + y_27 + y_36 + y_42 >= 1
 c_1_43: y_0 + y_1 + y_2 + y_3 + y_9 + y_31 + y_35 + y_40 + y_43 + y_45
   + y_49 >= 1
 c_1_44: y_8 + y_9 + y_44 + y_48 >= 1
 c_1_45: y_1 + y_2 + y_14 + y_19 + y_31 + y_35 + y_38 + y_40 + y_43 + y_45
   + y_48 >= 1
 c_1_46: y_4 + y_24 + y_29 + y_37 + y_46 >= 1
 c_1_47: y_1 + y_16 + y_19 + y_26 + y_27 + y_31 + y_47 >= 1
 c_1_48: y_9 + y_35 + y_44 + y_45 + y_48 >= 1
 c_1_49: y_0 + y_1 + y_2 + y_3 + y_35 + y_40 + y_43 + y_49 >= 1
Bounds
 Constant = 1
Binaries
 y_0 y_1 y_2 y_3 y_4 y_5 y_6 y_7 y_8 y_9 y_10 y_11 y_12 y_13 y_14 y_15 y_16
 y_17 y_18 y_19 y_20 y_21 y_22 y_23 y_24 y_25 y_26 y_27 y_28 y_29 y_30 y_31
 y_32 y_33 y_34 y_35 y_36 y_37 y_38 y_39 y_40 y_41 y_42 y_43 y_44 y_45 y_46
 y_47 y_48 y_49
End
